[VALIDATOR STDOUT]
Checking plan: /home/jfan5/Safety-gen/runs/benchmark/optic/grippers_20260201_172244/grippers/optic_results/grippers-n3-r34-o32-s32001.plan
Plan executed successfully - checking goal
Plan valid
Final value: 121 

Successful plans:
Value: 121
 /home/jfan5/Safety-gen/runs/benchmark/optic/grippers_20260201_172244/grippers/optic_results/grippers-n3-r34-o32-s32001.plan 121
